certificates/rado_a15_c233_N65.cnf
c Rad2 upper bound instance: x1 + 15*x2 - x3 = 233, interval [1,65]
p cnf 65 558
1 8 16 0
-1 -8 -16 0
1 17 23 0
-1 -17 -23 0
1 18 38 0
-1 -18 -38 0
1 19 53 0
-1 -19 -53 0
2 9 16 0
-2 -9 -16 0
2 17 24 0
-2 -17 -24 0
2 18 39 0
-2 -18 -39 0
2 19 54 0
-2 -19 -54 0
3 10 16 0
-3 -10 -16 0
3 17 25 0
-3 -17 -25 0
3 18 40 0
-3 -18 -40 0
3 19 55 0
-3 -19 -55 0
4 11 16 0
-4 -11 -16 0
4 17 26 0
-4 -17 -26 0
4 18 41 0
-4 -18 -41 0
4 19 56 0
-4 -19 -56 0
5 12 16 0
-5 -12 -16 0
5 17 27 0
-5 -17 -27 0
5 18 42 0
-5 -18 -42 0
5 19 57 0
-5 -19 -57 0
6 13 16 0
-6 -13 -16 0
6 17 28 0
-6 -17 -28 0
6 18 43 0
-6 -18 -43 0
6 19 58 0
-6 -19 -58 0
7 14 16 0
-7 -14 -16 0
7 17 29 0
-7 -17 -29 0
7 18 44 0
-7 -18 -44 0
7 19 59 0
-7 -19 -59 0
8 15 16 0
-8 -15 -16 0
8 17 30 0
-8 -17 -30 0
8 18 45 0
-8 -18 -45 0
8 19 60 0
-8 -19 -60 0
1 9 15 0
-1 -9 -15 0
9 16 0
-9 -16 0
9 17 31 0
-9 -17 -31 0
9 18 46 0
-9 -18 -46 0
9 19 61 0
-9 -19 -61 0
2 10 15 0
-2 -10 -15 0
10 16 17 0
-10 -16 -17 0
10 17 32 0
-10 -17 -32 0
10 18 47 0
-10 -18 -47 0
10 19 62 0
-10 -19 -62 0
3 11 15 0
-3 -11 -15 0
11 16 18 0
-11 -16 -18 0
11 17 33 0
-11 -17 -33 0
11 18 48 0
-11 -18 -48 0
11 19 63 0
-11 -19 -63 0
4 12 15 0
-4 -12 -15 0
12 16 19 0
-12 -16 -19 0
12 17 34 0
-12 -17 -34 0
12 18 49 0
-12 -18 -49 0
12 19 64 0
-12 -19 -64 0
5 13 15 0
-5 -13 -15 0
13 16 20 0
-13 -16 -20 0
13 17 35 0
-13 -17 -35 0
13 18 50 0
-13 -18 -50 0
13 19 65 0
-13 -19 -65 0
6 14 15 0
-6 -14 -15 0
14 16 21 0
-14 -16 -21 0
14 17 36 0
-14 -17 -36 0
14 18 51 0
-14 -18 -51 0
7 15 0
-7 -15 0
15 16 22 0
-15 -16 -22 0
15 17 37 0
-15 -17 -37 0
15 18 52 0
-15 -18 -52 0
16 23 0
-16 -23 0
16 17 38 0
-16 -17 -38 0
16 18 53 0
-16 -18 -53 0
9 15 17 0
-9 -15 -17 0
16 17 24 0
-16 -17 -24 0
17 39 0
-17 -39 0
17 18 54 0
-17 -18 -54 0
10 15 18 0
-10 -15 -18 0
16 18 25 0
-16 -18 -25 0
17 18 40 0
-17 -18 -40 0
18 55 0
-18 -55 0
11 15 19 0
-11 -15 -19 0
16 19 26 0
-16 -19 -26 0
17 19 41 0
-17 -19 -41 0
18 19 56 0
-18 -19 -56 0
12 15 20 0
-12 -15 -20 0
16 20 27 0
-16 -20 -27 0
17 20 42 0
-17 -20 -42 0
18 20 57 0
-18 -20 -57 0
13 15 21 0
-13 -15 -21 0
16 21 28 0
-16 -21 -28 0
17 21 43 0
-17 -21 -43 0
18 21 58 0
-18 -21 -58 0
14 15 22 0
-14 -15 -22 0
16 22 29 0
-16 -22 -29 0
17 22 44 0
-17 -22 -44 0
18 22 59 0
-18 -22 -59 0
15 23 0
-15 -23 0
16 23 30 0
-16 -23 -30 0
17 23 45 0
-17 -23 -45 0
18 23 60 0
-18 -23 -60 0
1 14 24 0
-1 -14 -24 0
15 16 24 0
-15 -16 -24 0
16 24 31 0
-16 -24 -31 0
17 24 46 0
-17 -24 -46 0
18 24 61 0
-18 -24 -61 0
2 14 25 0
-2 -14 -25 0
15 17 25 0
-15 -17 -25 0
16 25 32 0
-16 -25 -32 0
17 25 47 0
-17 -25 -47 0
18 25 62 0
-18 -25 -62 0
3 14 26 0
-3 -14 -26 0
15 18 26 0
-15 -18 -26 0
16 26 33 0
-16 -26 -33 0
17 26 48 0
-17 -26 -48 0
18 26 63 0
-18 -26 -63 0
4 14 27 0
-4 -14 -27 0
15 19 27 0
-15 -19 -27 0
16 27 34 0
-16 -27 -34 0
17 27 49 0
-17 -27 -49 0
18 27 64 0
-18 -27 -64 0
5 14 28 0
-5 -14 -28 0
15 20 28 0
-15 -20 -28 0
16 28 35 0
-16 -28 -35 0
17 28 50 0
-17 -28 -50 0
18 28 65 0
-18 -28 -65 0
6 14 29 0
-6 -14 -29 0
15 21 29 0
-15 -21 -29 0
16 29 36 0
-16 -29 -36 0
17 29 51 0
-17 -29 -51 0
7 14 30 0
-7 -14 -30 0
15 22 30 0
-15 -22 -30 0
16 30 37 0
-16 -30 -37 0
17 30 52 0
-17 -30 -52 0
8 14 31 0
-8 -14 -31 0
15 23 31 0
-15 -23 -31 0
16 31 38 0
-16 -31 -38 0
17 31 53 0
-17 -31 -53 0
9 14 32 0
-9 -14 -32 0
15 24 32 0
-15 -24 -32 0
16 32 39 0
-16 -32 -39 0
17 32 54 0
-17 -32 -54 0
10 14 33 0
-10 -14 -33 0
15 25 33 0
-15 -25 -33 0
16 33 40 0
-16 -33 -40 0
17 33 55 0
-17 -33 -55 0
11 14 34 0
-11 -14 -34 0
15 26 34 0
-15 -26 -34 0
16 34 41 0
-16 -34 -41 0
17 34 56 0
-17 -34 -56 0
12 14 35 0
-12 -14 -35 0
15 27 35 0
-15 -27 -35 0
16 35 42 0
-16 -35 -42 0
17 35 57 0
-17 -35 -57 0
13 14 36 0
-13 -14 -36 0
15 28 36 0
-15 -28 -36 0
16 36 43 0
-16 -36 -43 0
17 36 58 0
-17 -36 -58 0
14 37 0
-14 -37 0
15 29 37 0
-15 -29 -37 0
16 37 44 0
-16 -37 -44 0
17 37 59 0
-17 -37 -59 0
14 15 38 0
-14 -15 -38 0
15 30 38 0
-15 -30 -38 0
16 38 45 0
-16 -38 -45 0
17 38 60 0
-17 -38 -60 0
1 13 39 0
-1 -13 -39 0
14 16 39 0
-14 -16 -39 0
15 31 39 0
-15 -31 -39 0
16 39 46 0
-16 -39 -46 0
17 39 61 0
-17 -39 -61 0
2 13 40 0
-2 -13 -40 0
14 17 40 0
-14 -17 -40 0
15 32 40 0
-15 -32 -40 0
16 40 47 0
-16 -40 -47 0
17 40 62 0
-17 -40 -62 0
3 13 41 0
-3 -13 -41 0
14 18 41 0
-14 -18 -41 0
15 33 41 0
-15 -33 -41 0
16 41 48 0
-16 -41 -48 0
17 41 63 0
-17 -41 -63 0
4 13 42 0
-4 -13 -42 0
14 19 42 0
-14 -19 -42 0
15 34 42 0
-15 -34 -42 0
16 42 49 0
-16 -42 -49 0
17 42 64 0
-17 -42 -64 0
5 13 43 0
-5 -13 -43 0
14 20 43 0
-14 -20 -43 0
15 35 43 0
-15 -35 -43 0
16 43 50 0
-16 -43 -50 0
17 43 65 0
-17 -43 -65 0
6 13 44 0
-6 -13 -44 0
14 21 44 0
-14 -21 -44 0
15 36 44 0
-15 -36 -44 0
16 44 51 0
-16 -44 -51 0
7 13 45 0
-7 -13 -45 0
14 22 45 0
-14 -22 -45 0
15 37 45 0
-15 -37 -45 0
16 45 52 0
-16 -45 -52 0
8 13 46 0
-8 -13 -46 0
14 23 46 0
-14 -23 -46 0
15 38 46 0
-15 -38 -46 0
16 46 53 0
-16 -46 -53 0
9 13 47 0
-9 -13 -47 0
14 24 47 0
-14 -24 -47 0
15 39 47 0
-15 -39 -47 0
16 47 54 0
-16 -47 -54 0
10 13 48 0
-10 -13 -48 0
14 25 48 0
-14 -25 -48 0
15 40 48 0
-15 -40 -48 0
16 48 55 0
-16 -48 -55 0
11 13 49 0
-11 -13 -49 0
14 26 49 0
-14 -26 -49 0
15 41 49 0
-15 -41 -49 0
16 49 56 0
-16 -49 -56 0
12 13 50 0
-12 -13 -50 0
14 27 50 0
-14 -27 -50 0
15 42 50 0
-15 -42 -50 0
16 50 57 0
-16 -50 -57 0
13 51 0
-13 -51 0
14 28 51 0
-14 -28 -51 0
15 43 51 0
-15 -43 -51 0
16 51 58 0
-16 -51 -58 0
13 14 52 0
-13 -14 -52 0
14 29 52 0
-14 -29 -52 0
15 44 52 0
-15 -44 -52 0
16 52 59 0
-16 -52 -59 0
13 15 53 0
-13 -15 -53 0
14 30 53 0
-14 -30 -53 0
15 45 53 0
-15 -45 -53 0
16 53 60 0
-16 -53 -60 0
1 12 54 0
-1 -12 -54 0
13 16 54 0
-13 -16 -54 0
14 31 54 0
-14 -31 -54 0
15 46 54 0
-15 -46 -54 0
16 54 61 0
-16 -54 -61 0
2 12 55 0
-2 -12 -55 0
13 17 55 0
-13 -17 -55 0
14 32 55 0
-14 -32 -55 0
15 47 55 0
-15 -47 -55 0
16 55 62 0
-16 -55 -62 0
3 12 56 0
-3 -12 -56 0
13 18 56 0
-13 -18 -56 0
14 33 56 0
-14 -33 -56 0
15 48 56 0
-15 -48 -56 0
16 56 63 0
-16 -56 -63 0
4 12 57 0
-4 -12 -57 0
13 19 57 0
-13 -19 -57 0
14 34 57 0
-14 -34 -57 0
15 49 57 0
-15 -49 -57 0
16 57 64 0
-16 -57 -64 0
5 12 58 0
-5 -12 -58 0
13 20 58 0
-13 -20 -58 0
14 35 58 0
-14 -35 -58 0
15 50 58 0
-15 -50 -58 0
16 58 65 0
-16 -58 -65 0
6 12 59 0
-6 -12 -59 0
13 21 59 0
-13 -21 -59 0
14 36 59 0
-14 -36 -59 0
15 51 59 0
-15 -51 -59 0
7 12 60 0
-7 -12 -60 0
13 22 60 0
-13 -22 -60 0
14 37 60 0
-14 -37 -60 0
15 52 60 0
-15 -52 -60 0
8 12 61 0
-8 -12 -61 0
13 23 61 0
-13 -23 -61 0
14 38 61 0
-14 -38 -61 0
15 53 61 0
-15 -53 -61 0
9 12 62 0
-9 -12 -62 0
13 24 62 0
-13 -24 -62 0
14 39 62 0
-14 -39 -62 0
15 54 62 0
-15 -54 -62 0
10 12 63 0
-10 -12 -63 0
13 25 63 0
-13 -25 -63 0
14 40 63 0
-14 -40 -63 0
15 55 63 0
-15 -55 -63 0
11 12 64 0
-11 -12 -64 0
13 26 64 0
-13 -26 -64 0
14 41 64 0
-14 -41 -64 0
15 56 64 0
-15 -56 -64 0
12 65 0
-12 -65 0
13 27 65 0
-13 -27 -65 0
14 42 65 0
-14 -42 -65 0
15 57 65 0
-15 -57 -65 0
