certificates/rado_a15_c233_N65.drat
16 -61 12 0
-16 -62 -65 0
-62 -65 0
d -16 -62 -65 0
62 12 0
d 62 9 12 0
-65 0
12 0
16 0
-9 0
-23 0
-5 0
-19 0
15 0
57 0
61 0
13 0
-7 0
-4 0
-20 0
-22 0
-24 0
-8 0
-53 0
-64 0
-49 0
-50 0
-54 0
-6 0
-21 0
-51 0
59 0
56 0
60 0
1 0
2 0
58 0
-52 0
-63 0
-3 0
-48 0
-18 0
-39 0
-55 0
-10 0
-40 0
11 0
0
